data/benchmarks/bayes/90-12-7-q.cnf
p cnf 672 617
c weights 0.167542 0.832458 1 1 1 1 1 1 1 1 1 1 1 1 1 1 1 1 1 1 1 1 1 1 1 1 1 1 1 1 1 1 1 1 1 1 1 1 1 1 1 1 1 1 1 1 1 1 1 1 1 1 1 1 1 1 1 1 1 1 1 1 1 1 1 1 1 1 1 1 1 1 1 1 1 1 1 1 1 1 1 1 1 1 1 1 1 1 1 1 1 1 1 1 1 1 1 1 1 1 1 1 1 1 1 1 1 1 1 1 1 1 1 1 1 1 1 1 1 1 1 1 1 1 1 1 1 1 1 1 1 1 1 1 1 1 1 1 1 1 1 1 1 1 1 1 1 1 1 1 1 1 1 1 1 1 1 1 1 1 1 1 1 1 1 1 1 1 1 1 1 1 1 1 1 1 1 1 1 1 1 1 1 1 1 1 1 1 1 1 1 1 1 1 1 1 1 1 1 1 1 1 1 1 1 1 1 1 1 1 1 1 1 1 1 1 1 1 1 1 1 1 1 1 1 1 1 1 1 1 1 1 1 1 1 1 1 1 1 1 1 1 1 1 1 1 1 1 1 1 1 1 1 1 1 1 1 1 1 1 1 1 1 1 1 1 1 1 1 1 1 1 1 1 1 1 1 1 1 1 1 1 1 1 1 1 1 1 0.5 0.5 0.5 0.5 0.5 0.5 0.5 0.5 0.398314 0.6016859999999999 0.167645 0.832355 0.5 0.5 0.5 0.5 0.5 0.5 0.5 0.5 0.5 0.5 0.5 0.5 0.5 0.5 0.5 0.5 0.5 0.5 0.5 0.5 0.5 0.5 0.5 0.5 0.5 0.5 0.5 0.5 0.5 0.5 0.5 0.5 0.5 0.5 0.5 0.5 0.0875006 0.9124994 0.725488 0.274512 0.0157026 0.9842974 0.113072 0.8869279999999999 0.5 0.5 0.5 0.5 0.5 0.5 0.5 0.5 0.059854 0.940146 0.428416 0.571584 0.336008 0.663992 0.163891 0.836109 0.367059 0.632941 0.5391 0.4609 0.293912 0.706088 0.558994 0.441006 0.5 0.5 0.5 0.5 0.5 0.5 0.5 0.5 0.5 0.5 0.5 0.5 0.5 0.5 0.5 0.5 0.5 0.5 0.5 0.5 0.5 0.5 0.5 0.5 0.5 0.5 0.5 0.5 0.5 0.5 0.5 0.5 0.00471651 0.99528349 0.823752 0.17624799999999996 0.333483 0.666517 0.340725 0.659275 0.262237 0.737763 0.707784 0.29221600000000003 0.526742 0.47325799999999996 0.556149 0.443851 0.5 0.5 0.5 0.5 0.5 0.5 0.5 0.5 0.5 0.5 0.5 0.5 0.5 0.5 0.5 0.5 0.5 0.5 0.5 0.5 0.5 0.5 0.5 0.5 0.5 0.5 0.5 0.5 0.5 0.5 0.5 0.5 0.5 0.5 0.5 0.5 0.5 0.5 0.5 0.5 0.5 0.5 0.5 0.5 0.5 0.5 0.5 0.5 0.5 0.5 0.5 0.5 0.5 0.5 0.5 0.5 0.5 0.5 0.5 0.5 0.924866 0.07513400000000003 0.0249278 0.9750722000000001 0.392061 0.607939 0.383655 0.6163449999999999 0.5 0.5 0.5 0.5 0.5 0.5 0.5 0.5 0.189463 0.8105370000000001 0.280329 0.719671 0.425482 0.574518 0.638911 0.361089 0.5 0.5 0.5 0.5 0.5 0.5 0.5 0.5 0.772029 0.22797100000000003 0.00280784 0.99719216 0.691778 0.308222 0.860908 0.139092 0.5 0.5 0.5 0.5 0.5 0.5 0.5 0.5 0.5 0.5 0.5 0.5 0.5 0.5 0.5 0.5 0.5 0.5 0.5 0.5 0.5 0.5 0.5 0.5 0.5 0.5 0.5 0.5 0.5 0.5 0.5 0.5 0.5 0.5 0.5 0.5 0.5 0.5 0.5 0.5 0.5 0.5 0.5 0.5 0.5 0.5 0.5 0.5 0.5 0.5 0.5 0.5 0.5 0.5 0.5 0.5 0.5 0.5 0.5 0.5 0.5 0.5 0.5 0.5 0.5 0.5 0.5 0.5 0.763313 0.23668699999999998 0.582161 0.41783899999999996 0.582937 0.41706299999999996 0.761486 0.238514 0.5 0.5 0.5 0.5 0.5 0.5 0.5 0.5 0.5 0.5 0.5 0.5 0.5 0.5 0.5 0.5 0.5 0.5 0.5 0.5 0.5 0.5 0.5 0.5 0.5 0.5 0.5 0.5 0.5 0.5 0.5 0.5 0.5 0.5 0.5 0.5 0.13666 0.86334 0.228139 0.771861 0.885404 0.11459600000000003 0.899973 0.10002699999999998 0.5 0.5 0.5 0.5 0.5 0.5 0.5 0.5 0.5 0.5 0.5 0.5 0.5 0.5 0.5 0.5 0.5 0.5 0.5 0.5 0.5 0.5 0.5 0.5 0.5 0.5 0.5 0.5 0.5 0.5 0.5 0.5 0.235529 0.764471 0.257255 0.742745 0.602908 0.397092 0.417586 0.582414 0.539617 0.460383 0.554247 0.44575299999999995 0.13511 0.8648899999999999 0.425021 0.574979 0.5 0.5 0.5 0.5 0.5 0.5 0.5 0.5 0.5 0.5 0.5 0.5 0.5 0.5 0.5 0.5 0.5 0.5 0.5 0.5 0.5 0.5 0.5 0.5 0.5 0.5 0.5 0.5 0.5 0.5 0.5 0.5 0.5 0.5 0.5 0.5 0.5 0.5 0.5 0.5 0.5 0.5 0.5 0.5 0.5 0.5 0.5 0.5 0.5 0.5 0.5 0.5 0.5 0.5 0.5 0.5 0.5 0.5 0.5 0.5 0.5 0.5 0.5 0.5 0.5 0.5 0.5 0.5 0.5 0.5 0.5 0.5 0.5 0.5 0.5 0.5 0.0197919 0.9802081 0.874559 0.12544100000000002 0.253239 0.746761 0.819577 0.180423 0.5 0.5 0.5 0.5 0.5 0.5 0.5 0.5 0.5 0.5 0.5 0.5 0.5 0.5 0.5 0.5 0.5 0.5 0.5 0.5 0.5 0.5 0.5 0.5 0.5 0.5 0.5 0.5 0.5 0.5 0.5 0.5 0.5 0.5 0.5 0.5 0.5 0.5 0.5 0.5 0.5 0.5 0.5 0.5 0.969348 0.030652000000000013 0.549725 0.450275 0.743098 0.25690199999999996 0.24165 0.75835 0.5 0.5 0.5 0.5 0.5 0.5 0.5 0.5 0.5 0.5 0.5 0.5 0.5 0.5 0.5 0.5 0.5 0.5 0.5 0.5 0.5 0.5 0.5 0.5 0.5 0.5 0.5 0.5 0.5 0.5 0.5 0.5 0.5 0.5 0.5 0.5 0.5 0.5 0.5 0.5 0.151527 0.848473 0.4456 0.5544 0.543373 0.456627 0.894625 0.105375 0.5 0.5 0.5 0.5 0.5 0.5 0.5 0.5 0.5 0.5 0.5 0.5 0.5 0.5 0.5 0.5 0.5 0.5 0.5 0.5 0.850908 0.149092 0.343297 0.656703 0.314565 0.685435 0.394516 0.605484 0.5 0.5 0.5 0.5 0.5 0.5 0.5 0.5 0.5 0.5 0.5 0.5 0.5 0.5 0.5 0.5 0.5 0.5 0.5 0.5 0.5 0.5 0.5 0.5 0.890042 0.109958 0.721879 0.27812099999999995 0.776552 0.22344799999999998 0.0519563 0.9480437 0.5 0.5 0.5 0.5 0.5 0.5 0.5 0.5 0.5 0.5 0.5 0.5 0.5 0.5 0.5 0.5 0.544027 0.45597299999999996 0.856606 0.14339400000000002 0.666241 0.33375900000000003 0.0806785 0.9193215 0.0487255 0.9512745 0.845336 0.15466400000000002 0.617611 0.382389 0.424858 0.575142 0.5 0.5 0.5 0.5 0.5 0.5 0.5 0.5 0.5 0.5 0.5 0.5 0.5 0.5 0.5 0.5 0.5 0.5 0.5 0.5 0.5 0.5 0.5 0.5 0.5 0.5 0.5 0.5 0.5 0.5 0.5 0.5 0.5 0.5 0.5 0.5 0.5 0.5 0.5 0.5 0.5 0.5 0.5 0.5 0.5 0.5 0.5 0.5 0.5 0.5 0.5 0.5 0.151392 0.848608 0.592956 0.40704399999999996 0.371 0.629 0.461446 0.538554 0.5 0.5 0.5 0.5 0.5 0.5 0.5 0.5 0.5 0.5 0.5 0.5 0.5 0.5 0.5 0.5 0.301601 0.698399 0.864318 0.13568199999999997 0.756486 0.243514 0.0842398 0.9157602 0.5 0.5 0.5 0.5 0.5 0.5 0.5 0.5 0.5 0.5 0.5 0.5 0.5 0.5 0.5 0.5 0.5 0.5 0.5 0.5 0.5 0.5 0.5 0.5 0.5 0.5 0.5 0.5 0.5 0.5 0.5 0.5 0.5 0.5 0.5 0.5 0.5 0.5 0.5 0.5 0.5 0.5 0.5 0.5 0.5 0.5 0.5 0.5 0.5 0.5 0.5 0.5 0.5 0.5 0.5 0.5 0.5 0.5 0.5 0.5 0.5 0.5 0.5 0.5 0.5 0.5 0.5 0.5 0.5 0.5 0.5 0.5 0.5 0.5 0.5 0.5 0.5 0.5 0.5 0.5 0.5 0.5 0.5 0.5 0.5 0.5 0.5 0.5 0.5 0.5 0.5 0.5 0.5 0.5 0.5 0.5 0.5 0.5 0.5 0.5 0.5 0.5 0.5 0.5 0.5 0.5 0.5 0.5 0.5 0.5 0.5 0.5 0.5 0.5 0.5 0.5 0.5 0.5 0.5 0.5 0.5 0.5 0.5 0.5 0.5 0.5 0.5 0.5 0.5 0.5 0.5 0.5 0.5 0.5 0.5 0.5 0.5 0.5 0.5 0.5 0.5 0.5 0.5 0.5 0.5 0.5 0.5 0.5 0.5 0.5 0.5 0.5 0.5 0.5 0.5 0.5 0.5 0.5 0.5 0.5 0.5 0.5 0.5 0.5 0.5 0.5 0.5 0.5 0.5 0.5 0.5 0.5 0.5 0.5 0.5 0.5 0.5 0.5 0.5 0.5 0.5 0.5 0.5 0.5 0.5 0.5 0.5 0.5 0.5 0.5 0.5 0.5 0.5 0.5 0.5 0.5 0.5 0.5 0.5 0.5 0.5 0.5 0.5 0.5 0.5 0.5 0.5 0.5 0.417756 0.582244 0.258591 0.741409 0.5 0.5 0.5 0.5 0.5 0.5 0.5 0.5 0.5 0.5 0.5 0.5 0.5 0.5 0.5 0.5 0.5 0.5 0.5 0.5 0.5 0.5 0.5 0.5 0.5 0.5 0.5 0.5 0.5 0.5 0.5 0.5 0.5 0.5 0.5 0.5 0.5 0.5 0.5 0.5 0.5 0.5 0.5 0.5 0.5 0.5 0.5 0.5 0.5 0.5 0.5 0.5 0.5 0.5 0.5 0.5 0.5 0.5 0.5 0.5 0.5 0.5 0.5 0.5 0.5 0.5 0.5 0.5 0.5 0.5 0.5 0.5 0.5 0.5 0.5 0.5 0.5 0.5 0.5 0.5 0.5 0.5 0.5 0.5 0.5 0.5 0.5 0.5
-1 2 0
1 -2 0
-2 -3 0
2 3 0
-3 -149 4 0
-3 149 -4 0
3 -150 4 0
3 150 -4 0
-4 -5 0
4 5 0
-5 6 0
5 -6 0
-6 -7 0
6 7 0
-7 -8 0
7 8 0
-8 -9 0
8 9 0
-9 10 0
9 -10 0
-10 -11 0
10 11 0
-11 12 0
11 -12 0
-1 -13 0
1 13 0
-13 -2 -169 14 0
-13 -2 169 -14 0
-13 2 -170 14 0
-13 2 170 -14 0
13 -2 -171 14 0
13 -2 171 -14 0
13 2 -172 14 0
13 2 172 -14 0
-14 -3 -15 0
-14 3 15 0
14 -3 15 0
14 3 15 0
-15 -4 -177 16 0
-15 -4 177 -16 0
-15 4 -178 16 0
-15 4 178 -16 0
15 -4 -179 16 0
15 -4 179 -16 0
15 4 -180 16 0
15 4 180 -16 0
-16 -5 -181 17 0
-16 -5 181 -17 0
-16 5 -182 17 0
-16 5 182 -17 0
16 -5 -183 17 0
16 -5 183 -17 0
16 5 -184 17 0
16 5 184 -17 0
-17 -6 -18 0
-17 6 -18 0
17 -6 18 0
17 6 18 0
-18 -7 19 0
-18 7 -19 0
18 -7 -19 0
18 7 19 0
-19 -8 20 0
-19 8 -20 0
19 -8 20 0
19 8 -20 0
-20 -9 -21 0
-20 9 21 0
20 -9 -21 0
20 9 -21 0
-21 -10 -201 22 0
-21 -10 201 -22 0
-21 10 -202 22 0
-21 10 202 -22 0
21 -10 -203 22 0
21 -10 203 -22 0
21 10 -204 22 0
21 10 204 -22 0
-22 -11 -205 23 0
-22 -11 205 -23 0
-22 11 -206 23 0
-22 11 206 -23 0
22 -11 -207 23 0
22 -11 207 -23 0
22 11 -208 23 0
22 11 208 -23 0
-23 -12 24 0
-23 12 24 0
23 -12 -24 0
23 12 -24 0
-13 -25 0
13 25 0
-25 -14 -26 0
-25 14 -26 0
25 -14 26 0
25 14 26 0
-26 -15 27 0
-26 15 -27 0
26 -15 -27 0
26 15 -27 0
-27 -16 28 0
-27 16 -28 0
27 -16 28 0
27 16 28 0
-28 -17 29 0
-28 17 29 0
28 -17 -29 0
28 17 29 0
-29 -18 -30 0
-29 18 -30 0
29 -18 -30 0
29 18 30 0
-30 -19 -31 0
-30 19 31 0
30 -19 31 0
30 19 -31 0
-31 -20 -239 32 0
-31 -20 239 -32 0
-31 20 -240 32 0
-31 20 240 -32 0
31 -20 -241 32 0
31 -20 241 -32 0
31 20 -242 32 0
31 20 242 -32 0
-32 -21 33 0
-32 21 33 0
32 -21 33 0
32 21 -33 0
-33 -22 -247 34 0
-33 -22 247 -34 0
-33 22 -248 34 0
-33 22 248 -34 0
33 -22 -249 34 0
33 -22 249 -34 0
33 22 -250 34 0
33 22 250 -34 0
-34 -23 -35 0
-34 23 35 0
34 -23 35 0
34 23 35 0
-35 -24 -255 36 0
-35 -24 255 -36 0
-35 24 -256 36 0
-35 24 256 -36 0
35 -24 -257 36 0
35 -24 257 -36 0
35 24 -258 36 0
35 24 258 -36 0
-25 -37 0
25 37 0
-37 -26 38 0
-37 26 -38 0
37 -26 38 0
37 26 38 0
-38 -27 -39 0
-38 27 -39 0
38 -27 39 0
38 27 39 0
-39 -28 -40 0
-39 28 -40 0
39 -28 40 0
39 28 -40 0
-40 -29 -41 0
-40 29 41 0
40 -29 -41 0
40 29 -41 0
-41 -30 42 0
-41 30 42 0
41 -30 42 0
41 30 -42 0
-42 -31 43 0
-42 31 43 0
42 -31 43 0
42 31 -43 0
-43 -32 44 0
-43 32 44 0
43 -32 44 0
43 32 -44 0
-44 -33 45 0
-44 33 -45 0
44 -33 -45 0
44 33 -45 0
-45 -34 -293 46 0
-45 -34 293 -46 0
-45 34 -294 46 0
-45 34 294 -46 0
45 -34 -295 46 0
45 -34 295 -46 0
45 34 -296 46 0
45 34 296 -46 0
-46 -35 47 0
-46 35 -47 0
46 -35 -47 0
46 35 -47 0
-47 -36 48 0
-47 36 -48 0
47 -36 48 0
47 36 48 0
-37 -49 0
37 49 0
-49 -38 -50 0
-49 38 -50 0
49 -38 -50 0
49 38 50 0
-50 -39 51 0
-50 39 51 0
50 -39 51 0
50 39 -51 0
-51 -40 -315 52 0
-51 -40 315 -52 0
-51 40 -316 52 0
-51 40 316 -52 0
51 -40 -317 52 0
51 -40 317 -52 0
51 40 -318 52 0
51 40 318 -52 0
-52 -41 -53 0
-52 41 -53 0
52 -41 53 0
52 41 -53 0
-53 -42 54 0
-53 42 -54 0
53 -42 54 0
53 42 -54 0
-54 -43 55 0
-54 43 55 0
54 -43 55 0
54 43 -55 0
-55 -44 56 0
-55 44 -56 0
55 -44 -56 0
55 44 56 0
-56 -45 -335 57 0
-56 -45 335 -57 0
-56 45 -336 57 0
-56 45 336 -57 0
56 -45 -337 57 0
56 -45 337 -57 0
56 45 -338 57 0
56 45 338 -57 0
-57 -46 -339 58 0
-57 -46 339 -58 0
-57 46 -340 58 0
-57 46 340 -58 0
57 -46 -341 58 0
57 -46 341 -58 0
57 46 -342 58 0
57 46 342 -58 0
-58 -47 59 0
-58 47 -59 0
58 -47 59 0
58 47 -59 0
-59 -48 60 0
-59 48 60 0
59 -48 60 0
59 48 -60 0
-49 61 0
49 -61 0
-61 -50 62 0
-61 50 -62 0
61 -50 62 0
61 50 62 0
-62 -51 -63 0
-62 51 -63 0
62 -51 63 0
62 51 -63 0
-63 -52 64 0
-63 52 64 0
63 -52 -64 0
63 52 -64 0
-64 -53 -65 0
-64 53 -65 0
64 -53 65 0
64 53 -65 0
-65 -54 -66 0
-65 54 -66 0
65 -54 -66 0
65 54 66 0
-66 -55 -67 0
-66 55 -67 0
66 -55 -67 0
66 55 67 0
-67 -56 -68 0
-67 56 68 0
67 -56 68 0
67 56 -68 0
-68 -57 -381 69 0
-68 -57 381 -69 0
-68 57 -382 69 0
-68 57 382 -69 0
68 -57 -383 69 0
68 -57 383 -69 0
68 57 -384 69 0
68 57 384 -69 0
-69 -58 -70 0
-69 58 70 0
69 -58 -70 0
69 58 70 0
-70 -59 -71 0
-70 59 71 0
70 -59 -71 0
70 59 -71 0
-71 -60 -72 0
-71 60 -72 0
71 -60 72 0
71 60 -72 0
-61 -73 0
61 73 0
-73 -62 -74 0
-73 62 -74 0
73 -62 -74 0
73 62 74 0
-74 -63 75 0
-74 63 -75 0
74 -63 -75 0
74 63 -75 0
-75 -64 -407 76 0
-75 -64 407 -76 0
-75 64 -408 76 0
-75 64 408 -76 0
75 -64 -409 76 0
75 -64 409 -76 0
75 64 -410 76 0
75 64 410 -76 0
-76 -65 77 0
-76 65 -77 0
76 -65 -77 0
76 65 77 0
-77 -66 -78 0
-77 66 78 0
77 -66 -78 0
77 66 -78 0
-78 -67 -79 0
-78 67 79 0
78 -67 -79 0
78 67 -79 0
-79 -68 -80 0
-79 68 80 0
79 -68 -80 0
79 68 -80 0
-80 -69 -81 0
-80 69 81 0
80 -69 -81 0
80 69 81 0
-81 -70 -431 82 0
-81 -70 431 -82 0
-81 70 -432 82 0
-81 70 432 -82 0
81 -70 -433 82 0
81 -70 433 -82 0
81 70 -434 82 0
81 70 434 -82 0
-82 -71 83 0
-82 71 83 0
82 -71 83 0
82 71 -83 0
-83 -72 84 0
-83 72 -84 0
83 -72 84 0
83 72 84 0
-73 -85 0
73 85 0
-85 -74 -445 86 0
-85 -74 445 -86 0
-85 74 -446 86 0
-85 74 446 -86 0
85 -74 -447 86 0
85 -74 447 -86 0
85 74 -448 86 0
85 74 448 -86 0
-86 -75 87 0
-86 75 87 0
86 -75 -87 0
86 75 87 0
-87 -76 -88 0
-87 76 88 0
87 -76 -88 0
87 76 -88 0
-88 -77 89 0
-88 77 -89 0
88 -77 -89 0
88 77 -89 0
-89 -78 -461 90 0
-89 -78 461 -90 0
-89 78 -462 90 0
-89 78 462 -90 0
89 -78 -463 90 0
89 -78 463 -90 0
89 78 -464 90 0
89 78 464 -90 0
-90 -79 -91 0
-90 79 -91 0
90 -79 91 0
90 79 91 0
-91 -80 92 0
-91 80 92 0
91 -80 92 0
91 80 -92 0
-92 -81 -473 93 0
-92 -81 473 -93 0
-92 81 -474 93 0
-92 81 474 -93 0
92 -81 -475 93 0
92 -81 475 -93 0
92 81 -476 93 0
92 81 476 -93 0
-93 -82 -477 94 0
-93 -82 477 -94 0
-93 82 -478 94 0
-93 82 478 -94 0
93 -82 -479 94 0
93 -82 479 -94 0
93 82 -480 94 0
93 82 480 -94 0
-94 -83 95 0
-94 83 -95 0
94 -83 95 0
94 83 95 0
-95 -84 -96 0
-95 84 96 0
95 -84 96 0
95 84 -96 0
-85 -97 0
85 97 0
-97 -86 -98 0
-97 86 98 0
97 -86 98 0
97 86 98 0
-98 -87 99 0
-98 87 -99 0
98 -87 -99 0
98 87 99 0
-99 -88 -100 0
-99 88 100 0
99 -88 -100 0
99 88 -100 0
-100 -89 -101 0
-100 89 101 0
100 -89 -101 0
100 89 101 0
-101 -90 -507 102 0
-101 -90 507 -102 0
-101 90 -508 102 0
-101 90 508 -102 0
101 -90 -509 102 0
101 -90 509 -102 0
101 90 -510 102 0
101 90 510 -102 0
-102 -91 103 0
-102 91 103 0
102 -91 -103 0
102 91 103 0
-103 -92 104 0
-103 92 -104 0
103 -92 -104 0
103 92 -104 0
-104 -93 -519 105 0
-104 -93 519 -105 0
-104 93 -520 105 0
-104 93 520 -105 0
104 -93 -521 105 0
104 -93 521 -105 0
104 93 -522 105 0
104 93 522 -105 0
-105 -94 106 0
-105 94 106 0
105 -94 -106 0
105 94 -106 0
-106 -95 107 0
-106 95 -107 0
106 -95 107 0
106 95 107 0
-107 -96 -108 0
-107 96 108 0
107 -96 108 0
107 96 -108 0
-97 -109 0
97 109 0
-109 -98 -110 0
-109 98 -110 0
109 -98 110 0
109 98 110 0
-110 -99 111 0
-110 99 111 0
110 -99 -111 0
110 99 -111 0
-111 -100 112 0
-111 100 112 0
111 -100 112 0
111 100 -112 0
-112 -101 -113 0
-112 101 113 0
112 -101 113 0
112 101 -113 0
-113 -102 114 0
-113 102 -114 0
113 -102 114 0
113 102 114 0
-114 -103 -115 0
-114 103 115 0
114 -103 115 0
114 103 -115 0
-115 -104 116 0
-115 104 116 0
115 -104 116 0
115 104 -116 0
-116 -105 -117 0
-116 105 117 0
116 -105 -117 0
116 105 117 0
-117 -106 -118 0
-117 106 -118 0
117 -106 -118 0
117 106 118 0
-118 -107 119 0
-118 107 -119 0
118 -107 -119 0
118 107 119 0
-119 -108 120 0
-119 108 -120 0
119 -108 120 0
119 108 -120 0
-109 121 0
109 -121 0
-121 -110 -122 0
-121 110 -122 0
121 -110 122 0
121 110 -122 0
-122 -111 -123 0
-122 111 -123 0
122 -111 123 0
122 111 123 0
-123 -112 -124 0
-123 112 -124 0
123 -112 124 0
123 112 -124 0
-124 -113 -125 0
-124 113 -125 0
124 -113 125 0
124 113 -125 0
-125 -114 126 0
-125 114 126 0
125 -114 -126 0
125 114 126 0
-126 -115 127 0
-126 115 127 0
126 -115 127 0
126 115 -127 0
-127 -116 128 0
-127 116 128 0
127 -116 128 0
127 116 -128 0
-128 -117 -129 0
-128 117 129 0
128 -117 -129 0
128 117 -129 0
-129 -118 -130 0
-129 118 -130 0
129 -118 130 0
129 118 130 0
-130 -119 -131 0
-130 119 131 0
130 -119 -131 0
130 119 -131 0
-131 -120 132 0
-131 120 132 0
131 -120 -132 0
131 120 -132 0
-121 -627 133 0
-121 627 -133 0
121 -628 133 0
121 628 -133 0
-133 -122 -134 0
-133 122 134 0
133 -122 -134 0
133 122 134 0
-134 -123 135 0
-134 123 135 0
134 -123 -135 0
134 123 135 0
-135 -124 -136 0
-135 124 136 0
135 -124 -136 0
135 124 136 0
-136 -125 -137 0
-136 125 -137 0
136 -125 137 0
136 125 -137 0
-137 -126 138 0
-137 126 -138 0
137 -126 -138 0
137 126 -138 0
-138 -127 -139 0
-138 127 139 0
138 -127 139 0
138 127 -139 0
-139 -128 140 0
-139 128 -140 0
139 -128 -140 0
139 128 140 0
-140 -129 141 0
-140 129 141 0
140 -129 -141 0
140 129 141 0
-141 -130 142 0
-141 130 -142 0
141 -130 142 0
141 130 -142 0
-142 -131 143 0
-142 131 -143 0
142 -131 143 0
142 131 143 0
-143 -132 -144 0
-143 132 144 0
143 -132 -144 0
143 132 -144 0
144 0
