data/benchmarks/bayes/90-12-7-q.gr
p tw 672 645
55 66
67 68
75 408
99 100
88 100
70 82
8 9
40 41
29 41
3 150
64 407
100 101
11 23
121 133
31 239
20 239
85 448
74 448
41 42
40 315
73 74
62 74
93 479
76 408
133 134
44 56
70 432
14 15
3 15
52 316
74 75
133 628
106 107
89 463
78 463
95 107
122 133
45 295
34 295
15 16
82 433
47 48
36 48
92 474
107 108
96 108
21 203
18 30
128 140
2 171
21 32
80 81
69 81
81 473
140 141
113 124
129 141
10 22
14 172
68 381
57 381
81 82
54 65
102 114
5 181
17 183
22 23
43 55
114 115
87 98
51 315
103 115
55 56
28 39
76 88
75 407
88 99
29 40
77 89
23 207
3 149
102 509
85 447
74 447
2 13
58 341
62 73
110 122
22 247
34 249
70 431
3 14
51 63
35 46
133 627
95 106
36 47
92 473
128 139
21 22
2 170
69 80
113 114
16 181
10 21
54 55
102 113
17 182
43 54
87 88
28 29
17 29
81 431
11 205
76 87
88 89
109 121
101 507
90 507
29 30
57 339
46 339
50 62
61 62
23 206
13 171
121 122
102 508
33 247
2 3
85 446
58 340
62 63
94 95
83 95
105 519
110 121
34 248
3 4
35 36
24 36
5 184
95 96
84 96
127 128
116 128
51 318
9 20
68 69
57 69
128 129
117 129
4 179
69 70
42 53
58 70
101 102
90 102
10 11
16 180
31 43
102 103
75 86
91 103
123 135
93 521
22 250
43 44
16 27
32 44
64 76
135 136
108 119
124 136
5 17
17 28
56 337
45 337
76 77
65 77
97 109
6 18
57 338
50 61
98 110
82 93
13 170
39 51
23 34
16 184
83 94
131 143
115 126
24 35
72 84
56 67
116 127
36 256
9 10
57 68
82 479
89 100
81 434
11 208
101 510
90 510
4 178
30 41
42 43
94 480
90 101
134 135
104 521
22 204
31 42
75 76
123 134
93 520
105 522
16 17
64 75
5 16
49 50
38 50
56 336
45 336
109 110
130 142
50 51
82 83
71 83
142 143
23 24
12 24
22 208
32 240
83 84
115 116
15 178
104 116
56 57
45 57
116 117
105 117
36 255
90 464
57 58
46 58
46 296
89 90
78 90
4 150
82 478
10 202
30 31
19 31
90 91
63 74
79 91
111 123
93 474
104 520
22 203
4 15
31 32
20 32
52 64
141 142
69 382
123 124
112 124
35 258
24 258
64 65
53 65
85 97
5 6
26 38
38 49
97 98
70 81
86 98
118 130
130 141
27 39
11 22
71 82
119 131
93 478
76 407
12 23
22 207
44 55
60 72
32 239
86 448
104 115
15 177
52 315
1 13
122 123
89 462
78 462
45 56
45 294
34 294
82 432
93 105
96 107
90 463
21 202
18 29
46 295
78 89
126 138
4 149
10 201
19 30
64 410
63 64
129 140
31 242
14 171
20 242
111 122
40 318
93 473
4 5
25 37
52 63
69 381
103 114
37 38
35 257
26 37
70 71
59 71
118 129
130 131
77 88
11 12
81 476
74 446
92 104
68 384
57 384
93 477
44 45
33 45
86 447
125 137
51 62
89 461
78 461
66 78
45 293
34 293
82 431
137 138
18 19
7 19
21 201
75 410
99 111
2 169
129 130
40 52
64 409
111 112
100 112
31 241
14 170
20 241
132 144
40 317
73 85
17 181
70 434
103 104
14 26
85 86
106 118
136 137
92 476
47 59
59 70
118 119
107 119
77 78
23 205
81 475
102 507
80 92
85 445
74 445
58 339
92 103
68 383
57 383
110 111
33 44
81 93
34 247
51 52
86 446
5 183
125 136
84 95
143 144
51 317
66 77
114 126
117 128
55 67
75 409
99 110
58 69
46 342
57 342
40 51
33 250
16 179
132 143
91 102
25 26
121 628
22 249
32 43
70 433
14 25
124 135
17 18
106 117
65 76
92 475
47 58
6 17
57 337
2 172
98 109
21 33
13 169
80 91
113 125
39 50
16 183
131 142
54 66
13 25
5 182
17 184
72 83
87 99
51 316
117 118
28 40
81 433
11 207
101 509
90 509
58 59
4 177
120 132
57 341
46 341
94 479
23 208
61 73
102 510
33 249
16 178
91 92
2 14
58 342
121 627
93 519
105 521
32 33
94 106
22 248
34 250
124 125
35 47
127 139
65 66
56 335
45 335
68 80
6 7
139 140
98 99
57 336
101 113
39 40
16 182
131 132
105 116
46 57
82 477
81 432
11 206
101 508
90 508
120 131
79 90
57 340
46 340
94 478
13 172
104 519
22 202
20 31
33 248
16 177
112 123
105 520
94 105
24 257
53 64
38 39
36 258
127 138
86 97
9 21
68 79
27 38
71 72
4 180
57 335
119 130
42 54
101 112
22 206
60 71
104 105
75 87
13 14
45 46
34 46
93 522
93 104
105 106
16 28
90 462
46 47
108 120
78 79
67 79
46 294
126 137
56 338
45 338
49 61
138 139
19 20
8 20
79 80
94 477
82 94
20 21
52 53
41 53
22 201
76 410
112 113
32 242
23 35
15 180
52 318
115 127
53 54
35 256
24 256
74 86
56 68
26 27
15 27
36 257
86 87
82 480
89 101
27 28
48 60
10 204
119 120
30 42
93 476
104 522
22 205
1 2
69 384
22 34
34 45
93 94
7 18
90 461
67 78
126 127
46 293
8 19
64 408
100 111
31 240
14 169
20 240
40 316
41 52
93 480
76 409
32 241
15 179
52 317
35 255
24 255
74 85
89 464
78 464
122 134
45 296
34 296
82 434
15 26
59 60
21 204
107 118
81 474
48 59
92 93
10 203
63 75
68 382
57 382
33 34
93 475
81 92
4 16
125 126
86 445
69 383
22 33
34 35
66 67
114 125
37 49
7 8
